200
1000
165
163
163
162
162
161
159
159
159
158
157
157
157
157
155
154
154
154
154
153
153
152
152
152
151
151
151
151
151
151
150
148
147
147
146
146
144
143
143
143
140
140
139
139
138
138
138
137
136
136
135
135
135
134
133
132
132
131
130
130
130
129
129
128
128
127
127
127
124
124
124
123
123
119
118
118
116
116
116
115
115
114
114
112
110
110
110
110
109
109
109
107
107
106
106
106
105
105
105
104
103
103
103
102
101
101
101
101
101
100
100
99
99
99
98
98
98
98
97
97
97
96
95
95
93
93
93
92
92
92
91
90
90
90
90
89
89
88
88
87
86
86
86
86
85
85
84
83
83
82
81
81
81
81
80
79
79
79
78
77
77
76
76
75
75
75
75
74
73
73
73
72
72
72
72
70
70
69
68
68
67
67
67
66
66
65
65
65
64
62
61
61
60
59
59
58
58
58
57
57
